NAME : Unnamed.999414.tour
COMMENT : Length = 999414
COMMENT : Found by LKH [Keld Helsgaun] Sat Nov 23 20:52:14 2013
TYPE : TOUR
DIMENSION : 78
TOUR_SECTION
1
2
3
4
5
17
18
16
20
21
19
23
24
22
26
25
39
38
42
40
41
45
43
44
48
46
47
62
60
61
71
70
73
72
78
77
76
75
74
64
65
63
67
66
69
68
59
57
58
56
54
55
53
52
50
51
49
36
37
35
33
34
32
30
31
29
27
28
14
15
12
13
10
11
8
9
6
7
-1
EOF
